p cnf 600 786
-5  3  -4  0
7  5  -6  0
9  -7  -8  0
11  9  10  0
13  11  -12  0
-15  13  -14  0
-21  19  -20  0
-23  21  -22  0
25  23  24  0
-29  27  28  0
37  35  36  0
-41  39  40  0
47  -45  -46  0
49  -47  48  0
51  -49  50  0
53  51  -52  0
-55  -53  54  0
57  -55  56  0
-59  57  -58  0
-61  -59  -60  0
-63  -61  62  0
65  -63  -64  0
-67  -65  66  0
-71  -69  70  0
-73  -71  72  0
-75  73  -74  0
-83  -81  82  0
89  87  88  0
91  -89  90  0
93  91  92  0
-95  93  -94  0
97  95  -96  0
99  -97  98  0
103  -101  102  0
107  105  -106  0
109  -107  108  0
111  109  -110  0
-117  -115  -116  0
-119  117  118  0
-121  119  -120  0
-125  -123  -124  0
127  -125  -126  0
129  -127  -128  0
131  129  -130  0
133  -131  132  0
141  -139  -140  0
-143  -141  -142  0
145  -143  -144  0
147  145  -146  0
149  -147  -148  0
153  151  152  0
155  -153  -154  0
157  155  156  0
159  -157  -158  0
-161  159  160  0
-163  161  162  0
165  -163  164  0
-167  -165  -166  0
169  167  168  0
-175  173  174  0
177  -175  -176  0
-179  -177  -178  0
183  -181  -182  0
185  183  184  0
187  -185  186  0
-191  -189  190  0
-193  191  -192  0
-195  193  -194  0
-197  195  196  0
201  199  200  0
-205  -203  -204  0
209  207  -208  0
211  -209  -210  0
213  -211  -212  0
-217  -215  -216  0
-219  -217  -218  0
221  -219  -220  0
-223  -221  222  0
225  223  -224  0
-227  -225  226  0
-229  227  -228  0
231  -229  -230  0
-233  -231  232  0
-235  233  -234  0
-243  -241  -242  0
245  243  244  0
-247  245  246  0
249  -247  -248  0
251  249  250  0
-255  -253  254  0
-257  255  256  0
261  259  -260  0
-265  -263  -264  0
-267  265  -266  0
269  -267  268  0
271  -269  -270  0
-283  -281  -282  0
-285  -283  -284  0
-287  -285  -286  0
-293  -291  292  0
299  -297  298  0
-301  299  -300  0
-303  -301  302  0
307  305  -306  0
-317  -315  316  0
-321  319  -320  0
323  -321  -322  0
331  -329  330  0
-333  331  332  0
339  337  338  0
345  -343  344  0
-351  349  -350  0
355  353  -354  0
359  357  358  0
-363  361  362  0
-369  -367  368  0
-371  -369  370  0
373  371  372  0
383  381  382  0
-387  385  -386  0
-389  387  388  0
391  -389  -390  0
393  391  392  0
-395  393  -394  0
397  395  -396  0
-401  -399  400  0
405  403  404  0
-407  405  406  0
409  407  -408  0
411  409  410  0
-419  -417  418  0
421  419  420  0
-423  421  -422  0
-425  -423  -424  0
-427  -425  426  0
-429  -427  -428  0
-435  433  -434  0
-437  -435  -436  0
443  441  -442  0
-445  443  444  0
447  445  -446  0
453  451  452  0
-455  -453  -454  0
-463  -461  462  0
-467  465  466  0
469  -467  468  0
-471  -469  470  0
-475  473  -474  0
-477  475  476  0
479  -477  -478  0
-483  -481  -482  0
485  483  -484  0
-489  487  488  0
493  491  492  0
-495  -493  494  0
497  -495  496  0
-499  497  -498  0
-501  499  -500  0
-507  505  -506  0
-509  -507  -508  0
511  509  -510  0
-515  -513  514  0
-523  -521  522  0
-527  -525  -526  0
-529  527  528  0
-531  -529  530  0
-533  531  532  0
-535  -533  534  0
537  535  536  0
-541  539  -540  0
543  -541  -542  0
553  -551  552  0
-555  -553  -554  0
-557  -555  -556  0
559  -557  558  0
561  -559  -560  0
565  -563  -564  0
-567  565  566  0
571  569  570  0
-577  -575  576  0
-579  577  578  0
585  -583  -584  0
-589  587  588  0
591  589  -590  0
-593  591  -592  0
595  -593  594  0
-597  -595  596  0
599  -597  598  0
-4  -3  -2  0
4  3  1  0
6  -5  -3  0
6  3  4  0
8  7  6  0
-8  -7  5  0
10  -9  -7  0
-10  7  -8  0
-12  11  9  0
14  11  -12  0
16  15  -14  0
18  -17  -16  0
-18  -17  -15  0
20  19  18  0
20  19  17  0
20  -17  18  0
-22  -21  19  0
22  19  20  0
-24  23  -21  0
24  21  -22  0
26  25  -23  0
-26  -23  24  0
-28  -27  26  0
28  25  26  0
30  -29  -27  0
32  -31  -30  0
-32  -29  30  0
-34  -33  -32  0
-34  -31  32  0
-36  35  33  0
38  37  36  0
38  -37  -35  0
40  -39  -38  0
42  -41  39  0
-42  39  40  0
44  -43  -42  0
-44  41  -42  0
46  45  44  0
46  -43  44  0
-48  47  46  0
-48  47  45  0
48  -45  46  0
-50  -49  48  0
-50  -49  -47  0
-52  51  -49  0
-54  51  -52  0
56  55  -54  0
-56  -55  -53  0
56  53  54  0
-58  -57  -56  0
58  57  -55  0
60  59  -58  0
-60  -59  -57  0
-60  57  58  0
-62  61  -60  0
62  -59  -60  0
-64  63  62  0
64  63  61  0
-64  61  -62  0
-66  65  -64  0
68  67  -65  0
68  -65  -66  0
70  69  67  0
-70  -67  68  0
-72  -71  70  0
-72  71  69  0
74  -71  72  0
76  -75  74  0
76  75  -73  0
76  -73  -74  0
78  -75  -76  0
80  79  78  0
80  79  -77  0
80  -77  -78  0
-82  81  -79  0
82  -79  80  0
84  83  -81  0
-84  -81  82  0
-86  -85  -84  0
86  -85  83  0
86  83  84  0
88  87  -86  0
-88  87  -85  0
-88  85  86  0
90  89  88  0
90  89  -87  0
-90  87  88  0
-92  91  -90  0
-92  89  -90  0
94  -93  92  0
-94  -93  -91  0
94  91  92  0
96  95  -94  0
-96  -95  -93  0
-98  97  -96  0
98  97  95  0
98  95  96  0
-100  -99  -98  0
-100  97  -98  0
102  101  100  0
-102  -101  -99  0
102  99  100  0
104  101  102  0
106  105  -104  0
-106  105  -103  0
-106  103  104  0
108  107  106  0
108  -107  -105  0
110  -109  108  0
-110  109  107  0
-110  -107  108  0
-112  111  -110  0
112  -111  -109  0
112  109  110  0
-114  -113  111  0
-114  111  -112  0
116  115  114  0
-116  -115  113  0
-118  117  115  0
-118  115  -116  0
120  -119  117  0
122  121  119  0
122  -119  120  0
-124  -123  122  0
-126  -125  -124  0
-126  -125  123  0
126  123  -124  0
128  -127  -126  0
128  127  -125  0
-130  129  -127  0
-132  -131  130  0
-132  131  129  0
134  -133  132  0
-134  133  -131  0
-136  135  -134  0
136  -133  -134  0
138  137  -135  0
-138  135  -136  0
140  139  138  0
140  139  137  0
142  141  -140  0
-142  141  -139  0
-142  -139  -140  0
-144  143  -142  0
-144  143  -141  0
-146  145  -143  0
146  -143  -144  0
148  147  -146  0
-148  -147  -145  0
148  -145  -146  0
-150  149  -148  0
-152  151  150  0
152  -151  149  0
-152  -149  150  0
154  153  152  0
-154  -153  151  0
154  151  152  0
156  -153  154  0
-158  157  155  0
160  -159  157  0
-162  161  -159  0
164  163  -162  0
164  -163  -161  0
164  -161  -162  0
-166  -163  164  0
168  167  -166  0
-168  167  -165  0
168  165  166  0
-170  169  168  0
-170  -169  167  0
170  167  168  0
-172  171  169  0
172  169  -170  0
-174  -173  172  0
174  -173  -171  0
174  171  -172  0
176  -175  173  0
-176  173  -174  0
178  177  -176  0
178  175  -176  0
-180  -179  178  0
-180  -179  177  0
180  177  178  0
182  181  180  0
-182  181  -179  0
182  -179  180  0
-184  183  -182  0
184  183  -181  0
184  -181  -182  0
-186  -185  184  0
186  -185  -183  0
-186  -183  -184  0
-188  -187  186  0
190  189  188  0
192  191  -190  0
-192  191  189  0
192  189  190  0
-194  193  192  0
-194  -193  191  0
196  195  -194  0
196  -195  -193  0
196  193  194  0
198  -197  195  0
-198  -195  196  0
-200  -199  -198  0
200  -199  197  0
-200  197  198  0
202  -201  -199  0
202  -199  200  0
204  203  202  0
204  -203  201  0
-204  201  -202  0
-206  -205  204  0
208  207  -205  0
208  205  -206  0
-210  209  208  0
-210  209  207  0
-212  211  -210  0
-212  209  -210  0
-214  213  212  0
214  213  -211  0
-216  215  213  0
216  213  -214  0
218  -217  -216  0
218  215  -216  0
220  219  218  0
-222  221  -219  0
-224  -223  -222  0
224  223  221  0
-224  -221  -222  0
226  -223  -224  0
228  -227  -226  0
228  -225  226  0
230  229  228  0
230  229  -227  0
-230  227  228  0
-232  231  230  0
-232  -229  230  0
234  233  -231  0
236  -235  -234  0
-238  237  236  0
-238  -237  -235  0
-238  -235  -236  0
-240  237  238  0
242  241  -239  0
242  239  240  0
244  -243  -241  0
244  241  -242  0
-246  -245  243  0
-246  -243  244  0
-248  -247  -246  0
248  245  -246  0
-250  -249  248  0
-250  249  -247  0
-250  247  -248  0
252  -251  250  0
252  251  249  0
254  -253  251  0
-256  -255  -254  0
-256  255  253  0
258  255  256  0
260  -259  258  0
-260  259  257  0
-262  -261  -260  0
-262  -259  -260  0
-264  -263  -262  0
-264  263  -261  0
-264  -261  -262  0
-266  -265  264  0
-266  -263  -264  0
-268  267  -266  0
-268  -265  266  0
270  269  268  0
270  269  267  0
270  267  268  0
-272  -271  -270  0
-274  -273  272  0
-274  -273  -271  0
-274  271  -272  0
276  -273  274  0
278  277  275  0
280  -279  278  0
280  277  -278  0
-282  -281  -280  0
282  -281  279  0
282  -279  280  0
284  -283  -282  0
286  285  -284  0
-286  -285  283  0
-286  -283  284  0
288  287  286  0
-290  -289  288  0
290  289  -287  0
290  -287  -288  0
292  291  290  0
-294  -293  -291  0
294  291  292  0
-296  295  -294  0
-298  -297  -295  0
-298  -295  296  0
300  -299  297  0
300  -297  -298  0
-302  -301  300  0
302  -301  -299  0
-304  303  -302  0
304  -303  -301  0
-304  301  302  0
-306  -305  -304  0
-306  303  304  0
-308  -307  -306  0
-308  -307  -305  0
308  -305  -306  0
-310  307  308  0
312  -311  -310  0
312  -309  -310  0
314  313  -312  0
-316  315  314  0
316  315  313  0
-318  -315  -316  0
320  319  -318  0
320  -319  317  0
320  317  -318  0
322  -321  -320  0
-322  321  -319  0
322  -319  -320  0
-324  -323  322  0
324  -323  321  0
-324  321  -322  0
326  -323  -324  0
328  -327  -326  0
328  325  -326  0
330  -329  328  0
330  -329  327  0
330  -327  -328  0
332  -331  -330  0
-332  -331  -329  0
332  -329  -330  0
-334  -333  -332  0
334  -333  -331  0
-334  -331  332  0
336  -335  -333  0
336  -333  -334  0
338  337  336  0
338  335  -336  0
-340  339  338  0
340  -339  337  0
-342  341  339  0
342  339  340  0
-344  343  -341  0
344  -341  342  0
346  -345  -344  0
346  -345  -343  0
-348  -347  346  0
348  345  346  0
-350  -349  -348  0
350  -349  347  0
-352  -351  350  0
352  -351  349  0
352  349  350  0
-354  351  352  0
356  -355  -354  0
356  355  353  0
-356  -353  -354  0
358  -357  -355  0
-360  359  -358  0
-360  359  357  0
-362  361  359  0
362  359  360  0
364  -363  -361  0
364  361  362  0
-366  -365  -364  0
-366  365  -363  0
368  367  366  0
368  -367  365  0
-370  369  -368  0
370  -369  367  0
-372  -371  370  0
-372  -371  369  0
372  369  370  0
-374  -373  -372  0
374  373  -371  0
374  -371  372  0
376  -375  -374  0
376  375  -373  0
376  373  -374  0
-380  379  -378  0
-380  -379  377  0
382  -381  -380  0
382  -381  379  0
-384  -383  382  0
-384  383  -381  0
384  -381  -382  0
386  -385  -384  0
-386  -383  384  0
-388  -387  386  0
388  387  385  0
390  389  388  0
-390  -389  -387  0
392  -391  -389  0
392  389  390  0
394  -391  392  0
396  395  -394  0
-396  393  -394  0
398  -395  396  0
-400  -399  398  0
-400  399  -397  0
-400  -397  398  0
-402  401  -400  0
-402  -401  399  0
-402  -399  -400  0
404  401  402  0
406  405  404  0
-406  -403  404  0
-408  -407  405  0
408  -405  -406  0
-410  409  408  0
-410  407  -408  0
412  -411  410  0
414  413  412  0
-414  -413  -411  0
416  -415  414  0
416  415  413  0
416  413  -414  0
418  -417  415  0
-420  419  418  0
420  -419  -417  0
424  423  421  0
-426  425  423  0
426  423  424  0
-428  427  -426  0
-428  -427  -425  0
430  429  -428  0
-430  -429  -427  0
430  -427  -428  0
-432  431  430  0
432  429  430  0
434  -433  -432  0
434  433  -431  0
436  -435  -434  0
-436  435  -433  0
436  -433  434  0
438  -437  435  0
440  439  -438  0
440  -439  -437  0
442  441  -440  0
442  -441  439  0
442  439  440  0
-444  -443  -442  0
446  -445  444  0
448  447  -445  0
448  445  446  0
-450  449  448  0
-450  -449  447  0
450  -447  448  0
452  -451  450  0
-452  -451  449  0
454  -451  -452  0
456  -455  453  0
458  -455  -456  0
460  -459  457  0
-462  -461  -459  0
464  463  -461  0
-464  -461  -462  0
-466  465  464  0
-466  463  464  0
468  467  466  0
468  -467  -465  0
470  -469  -467  0
470  -467  -468  0
472  -471  -470  0
-472  471  469  0
-472  -469  470  0
-474  -473  472  0
-474  -473  -471  0
474  471  472  0
-476  475  474  0
-476  475  473  0
476  473  474  0
478  477  475  0
478  475  476  0
480  479  -478  0
482  481  -480  0
-482  479  480  0
484  483  482  0
484  -481  482  0
-486  485  -483  0
-486  -483  484  0
-488  -485  -486  0
490  487  488  0
-492  -491  -489  0
-492  489  -490  0
-494  -493  492  0
-494  -493  -491  0
-496  495  -494  0
-496  -495  493  0
-496  493  494  0
-498  497  -495  0
-498  -495  496  0
500  499  -498  0
500  499  -497  0
502  501  499  0
502  499  -500  0
504  -501  -502  0
-506  -505  -503  0
-508  505  506  0
510  -509  508  0
-510  507  508  0
512  509  -510  0
-514  513  -512  0
-514  -513  -511  0
-514  -511  512  0
-516  515  -514  0
516  515  513  0
516  513  -514  0
518  517  -516  0
-518  515  -516  0
522  521  -520  0
-522  -521  -519  0
-522  -519  520  0
-524  -523  522  0
-524  523  521  0
-524  -521  -522  0
526  -525  -524  0
526  -525  523  0
-526  -523  -524  0
-528  527  -526  0
528  527  -525  0
530  -529  528  0
-530  529  527  0
530  -527  528  0
-532  531  -530  0
-534  533  -532  0
534  -531  -532  0
-536  -535  -534  0
-536  -535  533  0
-538  -537  536  0
540  -539  537  0
540  -537  -538  0
542  -541  -540  0
-542  541  539  0
542  539  540  0
-544  -543  541  0
-544  541  542  0
-546  545  544  0
-546  -545  543  0
-546  -543  544  0
-548  545  -546  0
-550  -549  547  0
550  -547  -548  0
552  -551  550  0
552  549  550  0
554  -553  -552  0
-556  555  -554  0
-556  -553  554  0
560  -559  558  0
-560  559  -557  0
562  561  559  0
-562  -559  560  0
-564  -563  562  0
-564  -563  561  0
-566  565  563  0
568  567  -566  0
568  -567  565  0
568  565  -566  0
-570  569  568  0
570  -567  -568  0
-572  -571  -570  0
-572  569  -570  0
574  573  -572  0
574  573  571  0
-574  571  572  0
576  573  -574  0
578  577  -576  0
-578  -577  -575  0
-578  -575  -576  0
-580  577  578  0
-582  -581  -580  0
582  -581  579  0
-584  583  582  0
-586  585  -584  0
-588  587  -586  0
588  587  -585  0
588  -585  -586  0
590  -589  588  0
590  -589  587  0
-590  -587  588  0
592  591  -590  0
592  -589  590  0
-594  -593  592  0
594  593  591  0
594  591  -592  0
-596  -595  -594  0
-596  -595  -593  0
596  -593  -594  0
598  -597  -596  0
598  -597  595  0
-598  -595  596  0
600  -597  -598  0
